(set-info :smt-lib-version 2.6)
(set-logic QF_NIA)
(set-info :source |
Generated by: Cristina Borralleras, Daniel Larraz, Albert Oliveras, Enric Rodriguez-Carbonell, Albert Rubio
Generated on: 2017-04-27
Generator: VeryMax
Application: Termination proving
Target solver: barcelogic
|)
(set-info :license "https://creativecommons.org/licenses/by/4.0/")
(set-info :category "industrial")
(set-info :status sat)
(declare-fun Nl37cmd1^01 () Int)
(declare-fun Nl37cmd2^01 () Int)
(declare-fun Nl37i16^01 () Int)
(declare-fun Nl37zer^01 () Int)
(declare-fun Nl37cmd1^02 () Int)
(declare-fun Nl37cmd2^02 () Int)
(declare-fun Nl37i16^02 () Int)
(declare-fun Nl37zer^02 () Int)
(declare-fun lam0n0 () Int)
(declare-fun lam0n1 () Int)
(declare-fun lam0n2 () Int)
(declare-fun lam0n3 () Int)
(declare-fun lam0n4 () Int)
(declare-fun lam0n5 () Int)
(declare-fun lam0n6 () Int)
(declare-fun lam0n7 () Int)
(declare-fun lam0n8 () Int)
(declare-fun lam0n9 () Int)
(declare-fun lam0n10 () Int)
(declare-fun Nl37CT1 () Int)
(declare-fun Nl37CT2 () Int)
(declare-fun lam1n0 () Int)
(declare-fun lam1n1 () Int)
(declare-fun lam1n2 () Int)
(declare-fun lam1n3 () Int)
(declare-fun lam1n4 () Int)
(declare-fun lam1n5 () Int)
(declare-fun lam1n6 () Int)
(declare-fun lam1n7 () Int)
(declare-fun lam1n8 () Int)
(declare-fun lam1n9 () Int)
(declare-fun lam1n10 () Int)
(declare-fun lam2n0 () Int)
(declare-fun lam2n1 () Int)
(declare-fun lam2n2 () Int)
(declare-fun lam2n3 () Int)
(declare-fun lam2n4 () Int)
(declare-fun lam2n5 () Int)
(declare-fun lam2n6 () Int)
(declare-fun lam2n7 () Int)
(declare-fun lam2n8 () Int)
(declare-fun lam2n9 () Int)
(declare-fun lam2n10 () Int)
(declare-fun lam3n0 () Int)
(declare-fun lam3n1 () Int)
(declare-fun lam3n2 () Int)
(declare-fun lam3n3 () Int)
(declare-fun lam3n4 () Int)
(declare-fun lam3n5 () Int)
(declare-fun lam3n6 () Int)
(declare-fun lam3n7 () Int)
(declare-fun lam4n0 () Int)
(declare-fun lam4n1 () Int)
(declare-fun lam4n2 () Int)
(declare-fun lam4n3 () Int)
(declare-fun lam4n4 () Int)
(declare-fun lam4n5 () Int)
(declare-fun lam4n6 () Int)
(declare-fun lam4n7 () Int)
(declare-fun cmd2^0 () Int)
(declare-fun zer^0 () Int)
(declare-fun undef1834 () Int)
(declare-fun undef11301 () Int)
(declare-fun cmd1^0 () Int)
(declare-fun i16^0 () Int)
(declare-fun undef11511 () Int)
(declare-fun lam5n0 () Int)
(declare-fun lam5n1 () Int)
(declare-fun lam5n2 () Int)
(declare-fun lam5n3 () Int)
(declare-fun lam5n4 () Int)
(declare-fun lam5n5 () Int)
(declare-fun lam5n7 () Int)
(declare-fun lam5n8 () Int)
(declare-fun lam5n6 () Int)
(declare-fun lam6n0 () Int)
(declare-fun lam6n1 () Int)
(declare-fun lam6n2 () Int)
(declare-fun lam6n3 () Int)
(declare-fun lam6n4 () Int)
(declare-fun lam6n5 () Int)
(declare-fun lam6n7 () Int)
(declare-fun lam6n8 () Int)
(declare-fun lam6n6 () Int)
(assert ( and ( <= ( - 1 ) Nl37cmd1^01 ) ( <= Nl37cmd1^01 1 ) ( <= ( - 1 ) Nl37cmd2^01 ) ( <= Nl37cmd2^01 1 ) ( <= ( - 1 ) Nl37i16^01 ) ( <= Nl37i16^01 1 ) ( <= ( - 1 ) Nl37zer^01 ) ( <= Nl37zer^01 1 ) ( <= ( - 1 ) Nl37cmd1^02 ) ( <= Nl37cmd1^02 1 ) ( <= ( - 1 ) Nl37cmd2^02 ) ( <= Nl37cmd2^02 1 ) ( <= ( - 1 ) Nl37i16^02 ) ( <= Nl37i16^02 1 ) ( <= ( - 1 ) Nl37zer^02 ) ( <= Nl37zer^02 1 ) ))
(assert ( or ( and ( >= lam0n0 0 ) ( >= lam0n1 0 ) ( >= lam0n2 0 ) ( >= lam0n3 0 ) ( >= lam0n4 0 ) ( >= lam0n5 0 ) ( >= lam0n6 0 ) ( >= lam0n7 0 ) ( >= lam0n8 0 ) ( >= lam0n9 0 ) ( >= lam0n10 0 ) ( > ( + ( * 1 lam0n1 ) ( * 1 lam0n2 ) ( * ( - 1 ) lam0n3 ) ( * 16 lam0n4 ) ( * ( - 10 ) lam0n5 ) ( * 162 lam0n6 ) ( * 163 lam0n7 ) ( * 54 lam0n8 ) ( * Nl37CT1 lam0n9 ) ( * Nl37CT2 lam0n10 ) ( - 1 ) ) 0 ) ( = ( + ( * ( - 1 ) lam0n3 ) ( * ( - 1 ) lam0n6 ) ( * ( - 1 ) lam0n7 ) ( * ( - 1 ) lam0n8 ) ( * Nl37cmd1^01 lam0n9 ) ( * Nl37cmd1^02 lam0n10 ) ) 0 ) ( = ( + ( * 1 lam0n1 ) ( * ( - 1 ) lam0n3 ) ( * ( - 1 ) lam0n4 ) ( * ( - 1 ) lam0n5 ) ( * 1 lam0n6 ) ( * 1 lam0n7 ) ( * 1 lam0n8 ) ( * Nl37cmd2^01 lam0n9 ) ( * Nl37cmd2^02 lam0n10 ) ) 0 ) ( = ( + ( * ( - 1 ) lam0n0 ) ( * Nl37i16^01 lam0n9 ) ( * Nl37i16^02 lam0n10 ) ) 0 ) ( = ( + ( * ( - 1 ) lam0n1 ) ( * ( - 1 ) lam0n2 ) ( * 1 lam0n3 ) ( * ( - 1 ) lam0n4 ) ( * 1 lam0n5 ) ( * 1 lam0n6 ) ( * ( - 1 ) lam0n8 ) ( * Nl37zer^01 lam0n9 ) ( * Nl37zer^02 lam0n10 ) ) 0 ) ( = ( * 1 lam0n1 ) 0 ) ( = ( * ( - 1 ) lam0n4 ) 0 ) ) ( and ( >= lam1n0 0 ) ( >= lam1n1 0 ) ( >= lam1n2 0 ) ( >= lam1n3 0 ) ( >= lam1n4 0 ) ( >= lam1n5 0 ) ( >= lam1n6 0 ) ( >= lam1n7 0 ) ( >= lam1n8 0 ) ( >= lam1n9 0 ) ( >= lam1n10 0 ) ( > ( + ( * 1 lam1n1 ) ( * 1 lam1n2 ) ( * ( - 1 ) lam1n3 ) ( * 16 lam1n4 ) ( * ( - 10 ) lam1n5 ) ( * 162 lam1n6 ) ( * 163 lam1n7 ) ( * 54 lam1n8 ) ( * Nl37CT1 lam1n9 ) ( * Nl37CT2 lam1n10 ) ( - 1 ( + Nl37CT1 ( * Nl37i16^01 ( - 1 ) ) ) ) ) 0 ) ( = ( + ( * ( - 1 ) lam1n3 ) ( * ( - 1 ) lam1n6 ) ( * ( - 1 ) lam1n7 ) ( * ( - 1 ) lam1n8 ) ( * Nl37cmd1^01 lam1n9 ) ( * Nl37cmd1^02 lam1n10 ) ( - ( + 0 Nl37cmd1^01 ) ) ) 0 ) ( = ( + ( * 1 lam1n1 ) ( * ( - 1 ) lam1n3 ) ( * ( - 1 ) lam1n4 ) ( * ( - 1 ) lam1n5 ) ( * 1 lam1n6 ) ( * 1 lam1n7 ) ( * 1 lam1n8 ) ( * Nl37cmd2^01 lam1n9 ) ( * Nl37cmd2^02 lam1n10 ) ( - ( + 0 Nl37cmd2^01 ) ) ) 0 ) ( = ( + ( * ( - 1 ) lam1n0 ) ( * Nl37i16^01 lam1n9 ) ( * Nl37i16^02 lam1n10 ) ( - ( + 0 ( * Nl37i16^01 1 ) ) ) ) 0 ) ( = ( + ( * ( - 1 ) lam1n1 ) ( * ( - 1 ) lam1n2 ) ( * 1 lam1n3 ) ( * ( - 1 ) lam1n4 ) ( * 1 lam1n5 ) ( * 1 lam1n6 ) ( * ( - 1 ) lam1n8 ) ( * Nl37zer^01 lam1n9 ) ( * Nl37zer^02 lam1n10 ) ( - ( + 0 Nl37zer^01 ) ) ) 0 ) ( = ( * 1 lam1n1 ) 0 ) ( = ( * ( - 1 ) lam1n4 ) 0 ) ) ))
(assert ( or ( and ( >= lam0n0 0 ) ( >= lam0n1 0 ) ( >= lam0n2 0 ) ( >= lam0n3 0 ) ( >= lam0n4 0 ) ( >= lam0n5 0 ) ( >= lam0n6 0 ) ( >= lam0n7 0 ) ( >= lam0n8 0 ) ( >= lam0n9 0 ) ( >= lam0n10 0 ) ( > ( + ( * 1 lam0n1 ) ( * 1 lam0n2 ) ( * ( - 1 ) lam0n3 ) ( * 16 lam0n4 ) ( * ( - 10 ) lam0n5 ) ( * 162 lam0n6 ) ( * 163 lam0n7 ) ( * 54 lam0n8 ) ( * Nl37CT1 lam0n9 ) ( * Nl37CT2 lam0n10 ) ( - 1 ) ) 0 ) ( = ( + ( * ( - 1 ) lam0n3 ) ( * ( - 1 ) lam0n6 ) ( * ( - 1 ) lam0n7 ) ( * ( - 1 ) lam0n8 ) ( * Nl37cmd1^01 lam0n9 ) ( * Nl37cmd1^02 lam0n10 ) ) 0 ) ( = ( + ( * 1 lam0n1 ) ( * ( - 1 ) lam0n3 ) ( * ( - 1 ) lam0n4 ) ( * ( - 1 ) lam0n5 ) ( * 1 lam0n6 ) ( * 1 lam0n7 ) ( * 1 lam0n8 ) ( * Nl37cmd2^01 lam0n9 ) ( * Nl37cmd2^02 lam0n10 ) ) 0 ) ( = ( + ( * ( - 1 ) lam0n0 ) ( * Nl37i16^01 lam0n9 ) ( * Nl37i16^02 lam0n10 ) ) 0 ) ( = ( + ( * ( - 1 ) lam0n1 ) ( * ( - 1 ) lam0n2 ) ( * 1 lam0n3 ) ( * ( - 1 ) lam0n4 ) ( * 1 lam0n5 ) ( * 1 lam0n6 ) ( * ( - 1 ) lam0n8 ) ( * Nl37zer^01 lam0n9 ) ( * Nl37zer^02 lam0n10 ) ) 0 ) ( = ( * 1 lam0n1 ) 0 ) ( = ( * ( - 1 ) lam0n4 ) 0 ) ) ( and ( >= lam2n0 0 ) ( >= lam2n1 0 ) ( >= lam2n2 0 ) ( >= lam2n3 0 ) ( >= lam2n4 0 ) ( >= lam2n5 0 ) ( >= lam2n6 0 ) ( >= lam2n7 0 ) ( >= lam2n8 0 ) ( >= lam2n9 0 ) ( >= lam2n10 0 ) ( > ( + ( * 1 lam2n1 ) ( * 1 lam2n2 ) ( * ( - 1 ) lam2n3 ) ( * 16 lam2n4 ) ( * ( - 10 ) lam2n5 ) ( * 162 lam2n6 ) ( * 163 lam2n7 ) ( * 54 lam2n8 ) ( * Nl37CT1 lam2n9 ) ( * Nl37CT2 lam2n10 ) ( - 1 ( + Nl37CT2 ( * Nl37i16^02 ( - 1 ) ) ) ) ) 0 ) ( = ( + ( * ( - 1 ) lam2n3 ) ( * ( - 1 ) lam2n6 ) ( * ( - 1 ) lam2n7 ) ( * ( - 1 ) lam2n8 ) ( * Nl37cmd1^01 lam2n9 ) ( * Nl37cmd1^02 lam2n10 ) ( - ( + 0 Nl37cmd1^02 ) ) ) 0 ) ( = ( + ( * 1 lam2n1 ) ( * ( - 1 ) lam2n3 ) ( * ( - 1 ) lam2n4 ) ( * ( - 1 ) lam2n5 ) ( * 1 lam2n6 ) ( * 1 lam2n7 ) ( * 1 lam2n8 ) ( * Nl37cmd2^01 lam2n9 ) ( * Nl37cmd2^02 lam2n10 ) ( - ( + 0 Nl37cmd2^02 ) ) ) 0 ) ( = ( + ( * ( - 1 ) lam2n0 ) ( * Nl37i16^01 lam2n9 ) ( * Nl37i16^02 lam2n10 ) ( - ( + 0 ( * Nl37i16^02 1 ) ) ) ) 0 ) ( = ( + ( * ( - 1 ) lam2n1 ) ( * ( - 1 ) lam2n2 ) ( * 1 lam2n3 ) ( * ( - 1 ) lam2n4 ) ( * 1 lam2n5 ) ( * 1 lam2n6 ) ( * ( - 1 ) lam2n8 ) ( * Nl37zer^01 lam2n9 ) ( * Nl37zer^02 lam2n10 ) ( - ( + 0 Nl37zer^02 ) ) ) 0 ) ( = ( * 1 lam2n1 ) 0 ) ( = ( * ( - 1 ) lam2n4 ) 0 ) ) ))
(assert ( and ( not ( <= ( + ( * ( - 1 ) cmd2^0 ) zer^0 ( * ( - 1 ) undef1834 ) ) 0 ) ) ( not ( <= zer^0 0 ) ) ( <= ( + 16 ( * ( - 1 ) cmd2^0 ) ( * ( - 1 ) zer^0 ) ( * ( - 1 ) undef11301 ) ) 0 ) ( <= ( + ( - 10 ) ( * ( - 1 ) cmd2^0 ) zer^0 ) 0 ) ( <= ( + 162 ( * ( - 1 ) cmd1^0 ) cmd2^0 zer^0 ) 0 ) ( <= ( + 163 ( * ( - 1 ) cmd1^0 ) cmd2^0 ) 0 ) ( not ( <= ( + ( - 53 ) cmd1^0 ( * ( - 1 ) cmd2^0 ) zer^0 ) 0 ) ) ( = ( + i16^0 ( * ( - 1 ) undef11511 ) ) 0 ) ( <= ( + Nl37CT1 ( * ( + 0 Nl37cmd1^01 ) cmd1^0 ) ( * ( + 0 Nl37cmd2^01 ) cmd2^0 ) ( * ( + 0 Nl37i16^01 ) i16^0 ) ( * ( + 0 Nl37zer^01 ) zer^0 ) ) 0 ) ( <= ( + Nl37CT2 ( * ( + 0 Nl37cmd1^02 ) cmd1^0 ) ( * ( + 0 Nl37cmd2^02 ) cmd2^0 ) ( * ( + 0 Nl37i16^02 ) i16^0 ) ( * ( + 0 Nl37zer^02 ) zer^0 ) ) 0 ) ))
(assert ( or ( or ( and ( >= lam5n0 0 ) ( >= lam5n1 0 ) ( >= lam5n2 0 ) ( >= lam5n3 0 ) ( >= lam5n4 0 ) ( >= lam5n5 0 ) ( >= lam5n7 0 ) ( >= lam5n8 0 ) ( > ( + ( * 1 lam5n0 ) ( * 1 lam5n1 ) ( * 16 lam5n2 ) ( * ( - 10 ) lam5n3 ) ( * 162 lam5n4 ) ( * 163 lam5n5 ) ( * ( - 1872 ) lam5n6 ) ( * Nl37CT1 lam5n7 ) ( * Nl37CT2 lam5n8 ) ( - 1 ) ) 0 ) ( = ( + ( * ( - 1 ) lam5n4 ) ( * ( - 1 ) lam5n5 ) ( * 1 lam5n6 ) ( * Nl37cmd1^01 lam5n7 ) ( * Nl37cmd1^02 lam5n8 ) ) 0 ) ( = ( + ( * ( - 1 ) lam5n2 ) ( * ( - 1 ) lam5n3 ) ( * 1 lam5n4 ) ( * 1 lam5n5 ) ( * Nl37cmd2^01 lam5n7 ) ( * Nl37cmd2^02 lam5n8 ) ) 0 ) ( = ( + ( * 1 lam5n0 ) ( * Nl37i16^01 lam5n7 ) ( * Nl37i16^02 lam5n8 ) ) 0 ) ( = ( + ( * ( - 1 ) lam5n1 ) ( * ( - 1 ) lam5n2 ) ( * 1 lam5n3 ) ( * 1 lam5n4 ) ( * Nl37zer^01 lam5n7 ) ( * Nl37zer^02 lam5n8 ) ) 0 ) ( = ( * ( - 1 ) lam5n2 ) 0 ) ) ( and ( >= lam6n0 0 ) ( >= lam6n1 0 ) ( >= lam6n2 0 ) ( >= lam6n3 0 ) ( >= lam6n4 0 ) ( >= lam6n5 0 ) ( >= lam6n7 0 ) ( >= lam6n8 0 ) ( > ( + ( * 1 lam6n0 ) ( * 1 lam6n1 ) ( * 16 lam6n2 ) ( * ( - 10 ) lam6n3 ) ( * 162 lam6n4 ) ( * 163 lam6n5 ) ( * ( - 1872 ) lam6n6 ) ( * Nl37CT1 lam6n7 ) ( * Nl37CT2 lam6n8 ) 1 ) 0 ) ( = ( + ( * ( - 1 ) lam6n4 ) ( * ( - 1 ) lam6n5 ) ( * 1 lam6n6 ) ( * Nl37cmd1^01 lam6n7 ) ( * Nl37cmd1^02 lam6n8 ) ) 0 ) ( = ( + ( * ( - 1 ) lam6n2 ) ( * ( - 1 ) lam6n3 ) ( * 1 lam6n4 ) ( * 1 lam6n5 ) ( * Nl37cmd2^01 lam6n7 ) ( * Nl37cmd2^02 lam6n8 ) 1 ) 0 ) ( = ( + ( * 1 lam6n0 ) ( * Nl37i16^01 lam6n7 ) ( * Nl37i16^02 lam6n8 ) ) 0 ) ( = ( + ( * ( - 1 ) lam6n1 ) ( * ( - 1 ) lam6n2 ) ( * 1 lam6n3 ) ( * 1 lam6n4 ) ( * Nl37zer^01 lam6n7 ) ( * Nl37zer^02 lam6n8 ) ( - 1 ) ) 0 ) ( = 1 0 ) ( = ( * ( - 1 ) lam6n2 ) 0 ) ) ) ( and ( and ( and ( >= lam3n0 0 ) ( >= lam3n1 0 ) ( >= lam3n2 0 ) ( >= lam3n3 0 ) ( >= lam3n4 0 ) ( >= lam3n5 0 ) ( >= lam3n6 0 ) ( > ( + ( * 1 lam3n0 ) ( * 1 lam3n1 ) ( * 16 lam3n2 ) ( * ( - 10 ) lam3n3 ) ( * 162 lam3n4 ) ( * 163 lam3n5 ) ( * 54 lam3n6 ) ( - 1 Nl37CT1 ) ) 0 ) ( = ( + ( * ( - 1 ) lam3n4 ) ( * ( - 1 ) lam3n5 ) ( * ( - 1 ) lam3n6 ) ( - ( + 0 Nl37cmd1^01 ) ) ) 0 ) ( = ( + ( * 1 lam3n0 ) ( * ( - 1 ) lam3n2 ) ( * ( - 1 ) lam3n3 ) ( * 1 lam3n4 ) ( * 1 lam3n5 ) ( * 1 lam3n6 ) ( - ( + 0 Nl37cmd2^01 ) ) ) 0 ) ( = ( + ( * 1 lam3n7 ) ( - ( + 0 Nl37i16^01 ) ) ) 0 ) ( = ( + ( * ( - 1 ) lam3n0 ) ( * ( - 1 ) lam3n1 ) ( * ( - 1 ) lam3n2 ) ( * 1 lam3n3 ) ( * 1 lam3n4 ) ( * ( - 1 ) lam3n6 ) ( - ( + 0 Nl37zer^01 ) ) ) 0 ) ( = ( * 1 lam3n0 ) 0 ) ( = ( * ( - 1 ) lam3n2 ) 0 ) ( = ( * ( - 1 ) lam3n7 ) 0 ) ) ( and ( >= lam4n0 0 ) ( >= lam4n1 0 ) ( >= lam4n2 0 ) ( >= lam4n3 0 ) ( >= lam4n4 0 ) ( >= lam4n5 0 ) ( >= lam4n6 0 ) ( > ( + ( * 1 lam4n0 ) ( * 1 lam4n1 ) ( * 16 lam4n2 ) ( * ( - 10 ) lam4n3 ) ( * 162 lam4n4 ) ( * 163 lam4n5 ) ( * 54 lam4n6 ) ( - 1 Nl37CT2 ) ) 0 ) ( = ( + ( * ( - 1 ) lam4n4 ) ( * ( - 1 ) lam4n5 ) ( * ( - 1 ) lam4n6 ) ( - ( + 0 Nl37cmd1^02 ) ) ) 0 ) ( = ( + ( * 1 lam4n0 ) ( * ( - 1 ) lam4n2 ) ( * ( - 1 ) lam4n3 ) ( * 1 lam4n4 ) ( * 1 lam4n5 ) ( * 1 lam4n6 ) ( - ( + 0 Nl37cmd2^02 ) ) ) 0 ) ( = ( + ( * 1 lam4n7 ) ( - ( + 0 Nl37i16^02 ) ) ) 0 ) ( = ( + ( * ( - 1 ) lam4n0 ) ( * ( - 1 ) lam4n1 ) ( * ( - 1 ) lam4n2 ) ( * 1 lam4n3 ) ( * 1 lam4n4 ) ( * ( - 1 ) lam4n6 ) ( - ( + 0 Nl37zer^02 ) ) ) 0 ) ( = ( * 1 lam4n0 ) 0 ) ( = ( * ( - 1 ) lam4n2 ) 0 ) ( = ( * ( - 1 ) lam4n7 ) 0 ) ) ) ( and ( >= lam0n0 0 ) ( >= lam0n1 0 ) ( >= lam0n2 0 ) ( >= lam0n3 0 ) ( >= lam0n4 0 ) ( >= lam0n5 0 ) ( >= lam0n6 0 ) ( >= lam0n7 0 ) ( >= lam0n8 0 ) ( >= lam0n9 0 ) ( >= lam0n10 0 ) ( > ( + ( * 1 lam0n1 ) ( * 1 lam0n2 ) ( * ( - 1 ) lam0n3 ) ( * 16 lam0n4 ) ( * ( - 10 ) lam0n5 ) ( * 162 lam0n6 ) ( * 163 lam0n7 ) ( * 54 lam0n8 ) ( * Nl37CT1 lam0n9 ) ( * Nl37CT2 lam0n10 ) ( - 1 ) ) 0 ) ( = ( + ( * ( - 1 ) lam0n3 ) ( * ( - 1 ) lam0n6 ) ( * ( - 1 ) lam0n7 ) ( * ( - 1 ) lam0n8 ) ( * Nl37cmd1^01 lam0n9 ) ( * Nl37cmd1^02 lam0n10 ) ) 0 ) ( = ( + ( * 1 lam0n1 ) ( * ( - 1 ) lam0n3 ) ( * ( - 1 ) lam0n4 ) ( * ( - 1 ) lam0n5 ) ( * 1 lam0n6 ) ( * 1 lam0n7 ) ( * 1 lam0n8 ) ( * Nl37cmd2^01 lam0n9 ) ( * Nl37cmd2^02 lam0n10 ) ) 0 ) ( = ( + ( * ( - 1 ) lam0n0 ) ( * Nl37i16^01 lam0n9 ) ( * Nl37i16^02 lam0n10 ) ) 0 ) ( = ( + ( * ( - 1 ) lam0n1 ) ( * ( - 1 ) lam0n2 ) ( * 1 lam0n3 ) ( * ( - 1 ) lam0n4 ) ( * 1 lam0n5 ) ( * 1 lam0n6 ) ( * ( - 1 ) lam0n8 ) ( * Nl37zer^01 lam0n9 ) ( * Nl37zer^02 lam0n10 ) ) 0 ) ( = ( * 1 lam0n1 ) 0 ) ( = ( * ( - 1 ) lam0n4 ) 0 ) ) ) ))
(check-sat)
(exit)
